hw/hw_01_hall_of_fame/hw_01_lp modeling_陈志朋/problem_2c/instance/world_light.mps
* Signature: 0xac1ecdcb81a45484
NAME World_Light
OBJSENSE MAX
ROWS
 N  OBJ
 L  Frame_parts
 L  Electrical_components
 L  Product2_Num_Limit
COLUMNS
    Product1  OBJ       1
    Product1  Frame_parts  1
    Product1  Electrical_components  2
    Product2  OBJ       2
    Product2  Frame_parts  3
    Product2  Electrical_components  2
    Product2  Product2_Num_Limit  1
RHS
    RHS1      Frame_parts  200
    RHS1      Electrical_components  300
    RHS1      Product2_Num_Limit  20
BOUNDS
ENDATA
